\ENCODING=ISO-8859-1
\Problem name: instances

Maximize
 obj:
Subject To
 c1: 80 x1 + 56 x2 + 50 x3 + 67 x5 + 77 x6 + 74 x7 + 27 x8 + 48 x9 <= 239
 c2: 37 x1 + 67 x2 + 21 x3 - 30 x4 + 56 x5 + 30 x6 + 31 x7 - 98 x8 + 57 x9
     <= 100
 c3: 46 x1 - 78 x2 + 50 x4 + 18 x5 + 89 x6 + 26 x7 + 92 x8 + 47 x9 + 39 x10
     <= 175
 c4: 90 x1 + x2 + 70 x3 - 87 x4 + 21 x5 + 49 x6 + 55 x7 + 85 x8 + 21 x9
     + 41 x10 <= 302
 c5: 66 x1 - 50 x2 + 76 x3 + 54 x4 + 7 x6 - 9 x7 - 77 x8 + 10 x9 + 87 x10
     <= 119
Bounds
      x1 >= 0
      x2 >= 0
      x3 >= 0
      x4 >= 0
      x5 >= 0
      x6 >= 0
      x7 >= 0
      x8 >= 0
      x9 >= 0
      x10 >= 0
Generals
 x1  x2  x3  x4  x5  x6  x7  x8  x9  x10 
End
